(declare-fun Invar(Int Int) Bool)
(assert(forall ((x1 Int) (x2 Int))
    (=> (and (Invar x1 x2) (> x1 0)) (Invar (+ x1 -1) (+ x2 x1)))))
(assert(Invar 4 0))
(assert( forall ((x1 Int) (x2 Int))
    (=> (and (Invar x1 x2) (not(> x1 0))) (= x2 10))))
(check-sat-using (then qe smt))
(get-model)
(exit)